p cnf 21 124
4 5 6 0
-4 -6 0
-4 -5 0
-5 -6 0
19 20 21 0
-19 -21 0
-19 -20 0
-20 -21 0
10 11 12 0
-10 -12 0
-10 -11 0
-11 -12 0
16 17 18 0
-16 -18 0
-16 -17 0
-17 -18 0
7 8 9 0
-7 -9 0
-7 -8 0
-8 -9 0
19 20 21 0
-19 -21 0
-19 -20 0
-20 -21 0
1 2 3 0
-1 -3 0
-1 -2 0
-2 -3 0
13 14 15 0
-13 -15 0
-13 -14 0
-14 -15 0
1 2 3 0
-1 -3 0
-1 -2 0
-2 -3 0
16 17 18 0
-16 -18 0
-16 -17 0
-17 -18 0
1 2 3 0
-1 -3 0
-1 -2 0
-2 -3 0
19 20 21 0
-19 -21 0
-19 -20 0
-20 -21 0
16 17 18 0
-16 -18 0
-16 -17 0
-17 -18 0
19 20 21 0
-19 -21 0
-19 -20 0
-20 -21 0
13 14 15 0
-13 -15 0
-13 -14 0
-14 -15 0
16 17 18 0
-16 -18 0
-16 -17 0
-17 -18 0
10 11 12 0
-10 -12 0
-10 -11 0
-11 -12 0
13 14 15 0
-13 -15 0
-13 -14 0
-14 -15 0
7 8 9 0
-7 -9 0
-7 -8 0
-8 -9 0
10 11 12 0
-10 -12 0
-10 -11 0
-11 -12 0
4 5 6 0
-4 -6 0
-4 -5 0
-5 -6 0
7 8 9 0
-7 -9 0
-7 -8 0
-8 -9 0
1 2 3 0
-1 -3 0
-1 -2 0
-2 -3 0
4 5 6 0
-4 -6 0
-4 -5 0
-5 -6 0
19 20 21 0
-19 -21 0
-19 -20 0
-20 -21 0
16 17 18 0
-16 -18 0
-16 -17 0
-17 -18 0
13 14 15 0
-13 -15 0
-13 -14 0
-14 -15 0
10 11 12 0
-10 -12 0
-10 -11 0
-11 -12 0
7 8 9 0
-7 -9 0
-7 -8 0
-8 -9 0
4 5 6 0
-4 -6 0
-4 -5 0
-5 -6 0
1 2 3 0
-1 -3 0
-1 -2 0
-2 -3 0
